c 1 A1
c 2 A2
c 3 A3
c 4 C5
c 5 C6
c 6 C7
c 7 C8
c 8 A4
c 9 C10
c 10 C11
c 11 C12
c 12 C13
c 13 C14
c 14 A9
c 15 C15
c 16 C16
p cnf 16 21
1 0
1 -2 0
2 -3 0
3 -8 0
3 -4 0
3 -5 0
3 -6 0
3 -7 0
8 4 5 6 7 -3 0
8 -14 0
8 -9 0
8 -10 0
8 -11 0
8 -12 0
8 -13 0
14 -15 0
14 -16 0
16 -14 0
-3 -5 6 0
3 5 6 0
9 0

